
Gurobi 7.5.2 (linux64) logging started Sat Jun 23 16:55:30 2018

Changed value of parameter LogFile to result/ilp/simNo_1-n_100-m_40-s_4-minVAF_0.05-cov_2000-k_1-fn_0.10-fp_0.0001-na_0.15.ILP.gurobiSolverLog
   Prev: gurobi.log  Default: 
Changed value of parameter TimeLimit to 86400.0
   Prev: 1e+100  Min: 0.0  Max: 1e+100  Default: 1e+100
Optimize a model with 1265601 rows, 330440 columns and 3489120 nonzeros
Variable types: 0 continuous, 330440 integer (330440 binary)
Coefficient statistics:
  Matrix range     [2e-03, 3e+00]
  Objective range  [3e-01, 9e+00]
  Bounds range     [1e+00, 1e+00]
  RHS range        [2e-01, 2e+00]
Found heuristic solution: objective -17219.22959
Presolve removed 326276 rows and 212438 columns (presolve time = 7s) ...
Presolve removed 326276 rows and 212438 columns (presolve time = 10s) ...
Presolve removed 327285 rows and 212438 columns (presolve time = 15s) ...
Presolve removed 327842 rows and 212438 columns (presolve time = 20s) ...
Presolve removed 327842 rows and 212438 columns (presolve time = 25s) ...
Presolve removed 327842 rows and 212438 columns (presolve time = 31s) ...
Presolve removed 327842 rows and 212438 columns (presolve time = 35s) ...
Presolve removed 327842 rows and 212438 columns (presolve time = 40s) ...
Presolve removed 327842 rows and 212438 columns (presolve time = 50s) ...
Presolve removed 327842 rows and 212438 columns
Presolve time: 52.52s
Presolved: 937759 rows, 118002 columns, 2599749 nonzeros
Variable types: 0 continuous, 118002 integer (118002 binary)
Presolve removed 0 rows and 0 columns (presolve time = 5s) ...
Presolved: 118002 rows, 1055761 columns, 2717751 nonzeros

Presolve removed 118002 rows and 1055761 columns

Root simplex log...

Iteration    Objective       Primal Inf.    Dual Inf.      Time
       0    7.8735967e+00   0.000000e+00   1.129660e+05     65s
    6510   -1.3138041e+02   0.000000e+00   1.530710e+05     65s
   19787   -2.4790013e+02   0.000000e+00   1.174324e+05     70s
   29579   -2.8344086e+02   0.000000e+00   1.497747e+05     75s
   41099   -3.2458916e+02   0.000000e+00   8.383519e+03     80s
   43019   -3.2776923e+02   0.000000e+00   0.000000e+00     82s
   43019   -3.2776923e+02   0.000000e+00   0.000000e+00     85s

Root relaxation: objective -3.277692e+02, 43019 iterations, 28.94 seconds
Total elapsed time = 134.19s
Total elapsed time = 175.71s
Total elapsed time = 206.34s

    Nodes    |    Current Node    |     Objective Bounds      |     Work
 Expl Unexpl |  Obj  Depth IntInf | Incumbent    BestBd   Gap | It/Node Time

     0     0 -327.76923    0 1120 -17219.230 -327.76923  98.1%     -  216s
H    0     0                    -403.4593691 -327.76923  18.8%     -  236s
     0     0 -333.37543    0 1093 -403.45937 -333.37543  17.4%     -  277s
     0     0 -338.98163    0 1106 -403.45937 -338.98163  16.0%     -  349s
     0     0 -339.65345    0 1118 -403.45937 -339.65345  15.8%     -  374s
     0     0 -339.69980    0 1104 -403.45937 -339.69980  15.8%     -  384s
     0     0 -339.70379    0 1101 -403.45937 -339.70379  15.8%     -  393s
     0     0 -341.94627    0 1094 -403.45937 -341.94627  15.2%     -  417s
     0     0 -342.32001    0 1112 -403.45937 -342.32001  15.2%     -  447s
     0     0 -342.32001    0 1121 -403.45937 -342.32001  15.2%     -  462s
     0     0 -343.06759    0 1198 -403.45937 -343.06759  15.0%     -  486s
     0     0 -343.06759    0 1203 -403.45937 -343.06759  15.0%     -  525s
     0     0 -343.75151    0 1023 -403.45937 -343.75151  14.8%     -  553s
     0     0 -344.03071    0 1151 -403.45937 -344.03071  14.7%     -  583s
     0     0 -344.04771    0 1150 -403.45937 -344.04771  14.7%     -  598s
     0     0 -345.25467    0 1057 -403.45937 -345.25467  14.4%     -  625s
     0     0 -345.42564    0 1088 -403.45937 -345.42564  14.4%     -  650s
     0     0 -345.43261    0  994 -403.45937 -345.43261  14.4%     -  660s
     0     0 -346.87568    0  853 -403.45937 -346.87568  14.0%     -  681s
     0     0 -346.87568    0  830 -403.45937 -346.87568  14.0%     -  700s
     0     0 -348.08651    0 1031 -403.45937 -348.08651  13.7%     -  730s
     0     0 -348.22297    0 1211 -403.45937 -348.22297  13.7%     -  749s
     0     0 -348.24700    0 1121 -403.45937 -348.24700  13.7%     -  762s
     0     0 -348.25457    0 1211 -403.45937 -348.25457  13.7%     -  773s
     0     0 -348.84974    0 1022 -403.45937 -348.84974  13.5%     -  797s
     0     0 -348.85118    0  927 -403.45937 -348.85118  13.5%     -  817s
     0     0 -350.80493    0  995 -403.45937 -350.80493  13.1%     -  869s
     0     0 -350.80493    0  993 -403.45937 -350.80493  13.1%     -  890s
     0     0 -350.97517    0  962 -403.45937 -350.97517  13.0%     -  919s
     0     0 -351.01054    0 1065 -403.45937 -351.01054  13.0%     -  957s
     0     0 -351.01054    0 1007 -403.45937 -351.01054  13.0%     -  970s
     0     0 -354.11838    0  829 -403.45937 -354.11838  12.2%     - 1039s
     0     0 -354.11838    0  871 -403.45937 -354.11838  12.2%     - 1060s
     0     0 -355.08639    0  955 -403.45937 -355.08639  12.0%     - 1130s
     0     0 -355.42687    0  832 -403.45937 -355.42687  11.9%     - 1180s
     0     0 -355.42687    0  837 -403.45937 -355.42687  11.9%     - 1194s
     0     0 -356.69068    0 1186 -403.45937 -356.69068  11.6%     - 1249s
     0     0 -357.10854    0 1156 -403.45937 -357.10854  11.5%     - 1308s
     0     0 -357.10986    0 1157 -403.45937 -357.10986  11.5%     - 1320s
     0     0 -357.64548    0 1074 -403.45937 -357.64548  11.4%     - 1350s
     0     0 -358.93331    0 1100 -403.45937 -358.93331  11.0%     - 1428s
     0     0 -358.97848    0 1181 -403.45937 -358.97848  11.0%     - 1446s
     0     0 -358.97848    0 1154 -403.45937 -358.97848  11.0%     - 1456s
     0     0 -359.31376    0 1119 -403.45937 -359.31376  10.9%     - 1486s
     0     0 -359.31376    0 1120 -403.45937 -359.31376  10.9%     - 1521s
     0     0 -360.52058    0 1133 -403.45937 -360.52058  10.6%     - 1589s
     0     0 -360.52058    0 1150 -403.45937 -360.52058  10.6%     - 1628s
     0     0 -361.80533    0 1140 -403.45937 -361.80533  10.3%     - 1722s
     0     0 -362.34100    0 1129 -403.45937 -362.34100  10.2%     - 1773s
     0     0 -362.34100    0 1128 -403.45937 -362.34100  10.2%     - 1784s
     0     0 -362.44382    0 1205 -403.45937 -362.44382  10.2%     - 1818s
     0     0 -363.30386    0 1160 -403.45937 -363.30386  10.0%     - 1877s
     0     0 -363.30386    0 1162 -403.45937 -363.30386  10.0%     - 1889s
     0     0 -364.94783    0 1177 -403.45937 -364.94783  9.55%     - 2004s
     0     0 -366.00756    0 1170 -403.45937 -366.00756  9.28%     - 2176s
     0     0 -366.07600    0 1169 -403.45937 -366.07600  9.27%     - 2202s
     0     0 -366.09836    0 1167 -403.45937 -366.09836  9.26%     - 2227s
     0     0 -366.10481    0 1170 -403.45937 -366.10481  9.26%     - 2245s
     0     0 -366.12679    0 1187 -403.45937 -366.12679  9.25%     - 2261s
     0     0 -366.14216    0 1168 -403.45937 -366.14216  9.25%     - 2273s
     0     0 -366.14216    0 1164 -403.45937 -366.14216  9.25%     - 2284s
     0     0 -366.74762    0 1164 -403.45937 -366.74762  9.10%     - 2315s
     0     0 -366.82803    0 1157 -403.45937 -366.82803  9.08%     - 2355s
     0     0 -366.86501    0 1171 -403.45937 -366.86501  9.07%     - 2374s
     0     0 -366.87425    0 1169 -403.45937 -366.87425  9.07%     - 2391s
     0     0 -366.87845    0 1174 -403.45937 -366.87845  9.07%     - 2408s
     0     0 -366.87916    0 1175 -403.45937 -366.87916  9.07%     - 2422s
     0     0 -367.94927    0 1169 -403.45937 -367.94927  8.80%     - 2456s
     0     0 -368.04171    0 1171 -403.45937 -368.04171  8.78%     - 2501s
     0     0 -368.05120    0 1177 -403.45937 -368.05120  8.78%     - 2515s
     0     0 -368.09837    0 1179 -403.45937 -368.09837  8.76%     - 2533s
     0     0 -368.09837    0 1179 -403.45937 -368.09837  8.76%     - 2545s
     0     0 -369.35082    0 1169 -403.45937 -369.35082  8.45%     - 2578s
     0     0 -369.56884    0 1173 -403.45937 -369.56884  8.40%     - 2628s
     0     0 -369.58395    0 1172 -403.45937 -369.58395  8.40%     - 2641s
     0     0 -369.63046    0 1178 -403.45937 -369.63046  8.38%     - 2657s
     0     0 -369.66001    0 1179 -403.45937 -369.66001  8.38%     - 2674s
     0     0 -369.66001    0 1180 -403.45937 -369.66001  8.38%     - 2685s
     0     0 -369.72276    0 1180 -403.45937 -369.72276  8.36%     - 2711s
     0     0 -369.88882    0 1164 -403.45937 -369.88882  8.32%     - 2758s
     0     0 -369.94376    0 1169 -403.45937 -369.94376  8.31%     - 2776s
     0     0 -369.96720    0 1172 -403.45937 -369.96720  8.30%     - 2792s
     0     0 -369.98540    0 1168 -403.45937 -369.98540  8.30%     - 2805s
     0     0 -369.98540    0 1171 -403.45937 -369.98540  8.30%     - 2815s
     0     0 -370.81115    0 1168 -403.45937 -370.81115  8.09%     - 2870s
     0     0 -371.41860    0 1157 -403.45937 -371.41860  7.94%     - 2977s
     0     0 -371.41860    0 1159 -403.45937 -371.41860  7.94%     - 2990s
     0     0 -371.95931    0 1167 -403.45937 -371.95931  7.81%     - 3059s
     0     0 -372.43411    0 1089 -403.45937 -372.43411  7.69%     - 3133s
     0     0 -372.43411    0 1090 -403.45937 -372.43411  7.69%     - 3143s
     0     0 -372.43436    0 1097 -403.45937 -372.43436  7.69%     - 3174s
     0     0 -372.43436    0 1091 -403.45937 -372.43436  7.69%     - 3203s
     0     0 -372.43436    0 1097 -403.45937 -372.43436  7.69%     - 3224s
     0     0 -372.43436    0 1099 -403.45937 -372.43436  7.69%     - 3254s
     0     0 -372.43436    0 1078 -403.45937 -372.43436  7.69%     - 3586s
     0     0 -372.43436    0 1078 -403.45937 -372.43436  7.69%     - 3654s
     0     2 -372.43486    0 1078 -403.45937 -372.43486  7.69%     - 3832s
     1     3 -373.18160    1 1062 -403.45937 -372.43486  7.69%  3221 3853s
     2     4 -373.21512    2 1062 -403.45937 -372.43486  7.69%  1780 3856s
     3     5 -373.97025    3 1585 -403.45937 -372.43486  7.69%  1604 3896s
     4     6 -377.39053    4  985 -403.45937 -372.43486  7.69%  2130 3937s
     5     7 -378.19408    5  988 -403.45937 -372.43486  7.69%  1802 3944s
     6     8 -378.97895    6 1010 -403.45937 -372.43486  7.69%  1582 3949s
     7     9 -395.98443    6  503 -403.45937 -372.43486  7.69%  1649 3973s
     8    10 -379.35270    7 1008 -403.45937 -372.43486  7.69%  1469 3975s
     9     9     cutoff    7      -403.45937 -372.43486  7.69%  1740 4001s
    10    10 -379.61432    8 1009 -403.45937 -372.43486  7.69%  1606 4005s
    11     9     cutoff    8      -403.45937 -372.43486  7.69%  2124 4046s
    12    10 -380.06282    9 1007 -403.45937 -372.43486  7.69%  1961 4050s
    13    11 -400.47797    9  595 -403.45937 -372.43486  7.69%  2004 4077s
    14    12 -381.18406   10 1003 -403.45937 -372.43486  7.69%  1870 4081s
    16    14 -381.96892   12 1005 -403.45937 -372.43486  7.69%  1653 4087s
    17    13     cutoff   12      -403.45937 -372.43486  7.69%  1659 4107s
    18    14 -382.52954   13  925 -403.45937 -372.43486  7.69%  1592 4112s
    19    13     cutoff   13      -403.45937 -372.43486  7.69%  1554 4129s
    20    14 -383.37048   14  999 -403.45937 -372.43486  7.69%  1522 4140s
    21    13     cutoff   14      -403.45937 -372.43486  7.69%  1509 4157s
    22    14 -384.49172   15  999 -403.45937 -372.43486  7.69%  1465 4162s
    23    15 -385.55689   16  992 -403.45937 -372.43486  7.69%  1419 4167s
    24    16 -385.89327   17  906 -403.45937 -372.43486  7.69%  1372 4172s
    25    15     cutoff   17      -403.45937 -372.43486  7.69%  1351 4184s
    26    16 -385.89327   18  786 -403.45937 -372.43486  7.69%  1306 4187s
    27    15     cutoff   18      -403.45937 -372.43486  7.69%  1488 4223s
    28    16 -387.01451   19  770 -403.45937 -372.43486  7.69%  1451 4230s
    29    15     cutoff   19      -403.45937 -372.43486  7.69%  1420 4237s
    30    16 -387.76200   20  891 -403.45937 -372.43486  7.69%  1386 4243s
    31    15     cutoff   20      -403.45937 -372.43486  7.69%  1362 4250s
    33    17 -400.46939   21  239 -403.45937 -372.43486  7.69%  1298 4258s
    34    18 -401.21689   22  200 -403.45937 -372.43486  7.69%  1262 4261s
    37    21 -401.21689   25  122 -403.45937 -372.43486  7.69%  1163 4265s
    40    22 -402.33813   27  118 -403.45937 -372.43486  7.69%  1078 4270s
    44    20 -379.90126    1 1042 -403.45937 -373.18199  7.50%  1079 4321s
    45    21 -382.14374    2 1031 -403.45937 -373.18199  7.50%  1064 4333s
    46    22 -386.62870    3 1019 -403.45937 -373.18199  7.50%  1061 4352s
    47    21     cutoff    3      -403.45937 -373.18199  7.50%  1146 4412s
    48    22 -390.36617    4 1027 -403.45937 -373.18199  7.50%  1192 4440s
    49    21     cutoff    4      -403.45937 -373.18199  7.50%  1237 4474s
    50    22 -392.60865    5 1004 -403.45937 -373.18199  7.50%  1229 4491s
    51    23 -395.41176    6 1006 -403.45937 -373.18199  7.50%  1216 4507s
    52    24 -397.10219    7  715 -403.45937 -373.18199  7.50%  1195 4513s
    53    25 -401.59573    8  714 -403.45937 -373.18199  7.50%  1174 4517s
    54    26 -398.77548    8  925 -403.45937 -373.18199  7.50%  1155 4524s
    55    27 -402.71697    9  655 -403.45937 -373.18199  7.50%  1135 4529s
    56    26     cutoff    9      -403.45937 -373.18199  7.50%  1116 4530s
    59    25 -399.33610    9  661 -403.45937 -373.18199  7.50%  1061 4536s
    62    26 -400.45734   11  565 -403.45937 -373.18199  7.50%  1010 4542s
    63    27 -401.57858   12  553 -403.45937 -373.18199  7.50%   996 4545s
    65    27 -402.69982   13  512 -403.45937 -373.18199  7.50%   966 4550s
    69    25 -382.14299    2 1053 -403.45937 -373.21622  7.50%   980 4604s
    70    26 -385.88046    3 1055 -403.45937 -373.21622  7.50%   996 4629s
    71    25     cutoff    3      -403.45937 -373.21622  7.50%  1080 4699s
    72    26 -389.61793    4 1036 -403.45937 -373.21622  7.50%  1096 4717s
    73    27 -398.22268    5  688 -403.45937 -373.21622  7.50%  1095 4744s
    74    28 -402.71622    6  671 -403.45937 -373.21622  7.50%  1085 4751s
    75    29 -400.45659    6  600 -403.45937 -373.21622  7.50%  1073 4756s
    77    29     cutoff    7      -403.45937 -373.21622  7.50%  1046 4760s
    79    31 -402.69907    9  503 -403.45937 -373.21622  7.50%  1020 4766s
    85    29 -382.99104    3 1064 -403.45937 -373.97121  7.31%  1024 4859s
    86    30 -385.23352    4 1054 -403.45937 -373.97121  7.31%  1020 4875s
    87    31 -389.71848    5 1068 -403.45937 -373.97121  7.31%  1023 4905s
    88    30     cutoff    4      -403.45937 -373.97121  7.31%  1031 4936s
    89    29     cutoff    5      -403.45937 -373.97121  7.31%  1136 5037s
    90    30 -392.70846    6 1038 -403.45937 -373.97121  7.31%  1133 5049s
    91    31 -396.29643    7  980 -403.45937 -373.97121  7.31%  1125 5063s
    92    32 -398.87528    8  938 -403.45937 -373.97121  7.31%  1116 5070s
    94    32     cutoff   10      -403.45937 -373.97121  7.31%  1094 5075s
    96    34 -402.79962   11  543 -403.45937 -373.97121  7.31%  1072 5082s
   100    32 -380.77147    4 1678 -403.45937 -377.39053  6.46%  1046 5118s
   101    33 -380.84969    5 1156 -403.45937 -377.39053  6.46%  1036 5123s
   102    34 -380.84994    6 1154 -403.45937 -377.39053  6.46%  1027 5125s
   103    35 -381.63083    7 1143 -403.45937 -377.39053  6.46%  1023 5136s
   104    36 -382.41163    8 1160 -403.45937 -377.39053  6.46%  1022 5172s
   106    38 -382.41175   10 1128 -403.45937 -377.39053  6.46%  1004 5176s
   108    40 -382.41188   12 1150 -403.45937 -377.39053  6.46%   986 5181s
   109    41 -390.02113   12 1035 -403.45937 -377.39053  6.46%   990 5198s
   110    42 -394.50610   13 1032 -403.45937 -377.39053  6.46%   985 5209s
   111    43 -396.74858   14 1024 -403.45937 -377.39053  6.46%   978 5214s
   112    42     cutoff   15      -403.45937 -377.39053  6.46%   972 5217s
   114    40     cutoff   14      -403.45937 -377.39053  6.46%   960 5222s
   115    39     cutoff   13      -403.45937 -377.39053  6.46%   956 5232s
   116    40 -402.28053    5  723 -403.45937 -379.91413  5.84%   993 5291s
   119    39 -403.44731    2 1022 -403.45937 -380.06282  5.80%  1034 5370s
   122    36     cutoff   10      -403.45937 -380.80945  5.61%  1016 5386s
   123    37 -391.33528    5 1075 -403.45937 -380.84986  5.60%  1016 5412s
   124    38 -395.82025    6 1063 -403.45937 -380.84986  5.60%  1014 5428s
   125    39 -399.55772    7 1073 -403.45937 -380.84986  5.60%  1012 5438s
   126    40 -402.17394    8 1049 -403.45937 -380.84986  5.60%  1007 5445s
   130    36     cutoff    7      -403.45937 -380.84986  5.60%   980 5451s
   131    37 -383.83983    6 1042 -403.45937 -380.85061  5.60%   980 5465s
   132    38 -387.95105    7 1040 -403.45937 -380.85061  5.60%   979 5477s
   133    39 -391.91276    8  984 -403.45937 -380.85061  5.60%   977 5488s
   134    40 -393.67225    9  952 -403.45937 -380.85061  5.60%   972 5494s
   135    41 -396.62197   10  947 -403.45937 -380.85061  5.60%   967 5500s
   136    42 -399.53720   11  938 -403.45937 -380.85061  5.60%   961 5505s
   137    43 -400.66701   12  761 -403.45937 -380.85061  5.60%   955 5511s
   139    43 -401.77968   13  907 -403.45937 -380.85061  5.60%   942 5515s
   144    42 -385.33557    7 1045 -403.45937 -381.18406  5.52%   917 5541s
   145    43 -386.83056    8 1041 -403.45937 -381.18406  5.52%   912 5547s
   146    44 -391.31552    9 1027 -403.45937 -381.18406  5.52%   910 5555s
   147    43     cutoff    9      -403.45937 -381.18406  5.52%   908 5566s
   148    42     cutoff    8      -403.45937 -381.18406  5.52%   912 5586s
   149    43 -395.42673   10  971 -403.45937 -381.18406  5.52%   911 5599s
   150    44 -398.41671   11  948 -403.45937 -381.18406  5.52%   906 5605s
   151    45 -401.03294   12  920 -403.45937 -381.18406  5.52%   902 5610s
   152    46 -402.90167   13  898 -403.45937 -381.18406  5.52%   897 5615s
   157    42     cutoff   11      -403.45937 -381.66352  5.40%   889 5651s
   158    43 -386.93073    8 1039 -403.45937 -382.41204  5.22%   891 5672s
   159    44 -391.04195    9 1027 -403.45937 -382.41204  5.22%   890 5686s
   160    43     cutoff   10      -403.45937 -382.41204  5.22%   887 5691s
   161    44 -393.28443   10 1048 -403.45937 -382.41204  5.22%   884 5696s
   162    45 -395.90066   11 1001 -403.45937 -382.41204  5.22%   881 5704s
   163    44     cutoff   12      -403.45937 -382.41204  5.22%   876 5706s
   165    44     cutoff   13      -403.45937 -382.41204  5.22%   868 5710s
   167    44     cutoff   11      -403.45937 -382.41204  5.22%   862 5718s
   169    42     cutoff   14      -403.45937 -382.41204  5.22%   853 5720s
   170    43 -382.41339   13 1136 -403.45937 -382.41339  5.22%   848 5725s
   171    44 -383.56668   14 1137 -403.45937 -382.43441  5.21%   860 5758s
   172    45 -383.75481   15 1744 -403.45937 -382.43441  5.21%   858 5769s
   173    46 -388.81771   16 1769 -403.45937 -382.43441  5.21%   858 5784s
   174    47 -390.59602   17 1143 -403.45937 -382.43441  5.21%   859 5799s
   175    48 -390.59623   18 1141 -403.45937 -382.43441  5.21%   854 5801s
   176    49 -390.66300   19 1480 -403.45937 -382.43441  5.21%   850 5806s
   177    50 -390.79729   20 1494 -403.45937 -382.43441  5.21%   846 5810s
   178    51 -393.03233   21 1176 -403.45937 -382.43441  5.21%   847 5825s
   179    52 -393.82138   22 1182 -403.45937 -382.43441  5.21%   847 5837s
   180    53 -394.50130   23 1117 -403.45937 -382.43441  5.21%   845 5844s
   181    54 -394.50130   24 1112 -403.45937 -382.43441  5.21%   840 5846s
   183    56 -398.76299   26 1110 -403.45937 -382.43441  5.21%   834 5856s
   184    57 -402.50046   27 1039 -403.45937 -382.43441  5.21%   833 5867s
   186    55     cutoff   28      -403.45937 -382.43441  5.21%   825 5871s
   188    53     cutoff   26      -403.45937 -382.43441  5.21%   821 5880s
   189    54 -389.64814   14 1046 -403.45937 -382.43500  5.21%   840 5923s
   190    55 -393.75935   15 1026 -403.45937 -382.43500  5.21%   842 5940s
   191    56 -398.24431   16  958 -403.45937 -382.43500  5.21%   854 5973s
   192    55     cutoff   17      -403.45937 -382.43500  5.21%   854 5988s
   193    54     cutoff   17      -403.45937 -382.43500  5.21%   910 6180s
   194    53     cutoff   16      -403.45937 -382.43500  5.21%   909 6189s
   195    52     cutoff   15      -403.45937 -382.43500  5.21%   978 6434s
   196    53 -387.40441    9 1060 -403.45937 -382.43513  5.21%   998 6495s
   197    54 -391.51562   10 1058 -403.45937 -382.43513  5.21%  1021 6581s
   198    55 -393.75810   11 1048 -403.45937 -382.43513  5.21%  1022 6608s
   199    56 -397.49557   12 1045 -403.45937 -382.43513  5.21%  1029 6643s
   200    57 -399.73805   13 1024 -403.45937 -382.43513  5.21%  1029 6659s
   201    58 -402.54115   14 1029 -403.45937 -382.43513  5.21%  1028 6676s
   202    57     cutoff   15      -403.45937 -382.43513  5.21%  1025 6683s
   204    55     cutoff   14      -403.45937 -382.43513  5.21%  1019 6693s
   205    54     cutoff   13      -403.45937 -382.43513  5.21%  1086 6948s
   206    55 -387.77828   10 1078 -403.45937 -382.43538  5.21%  1100 6980s
   207    54     cutoff   11      -403.45937 -382.43538  5.21%  1109 7044s
   208    53     cutoff   11      -403.45937 -382.43538  5.21%  1157 7208s
   209    54 -387.77853   11 1042 -403.45937 -382.43575  5.21%  1167 7240s
   210    55 -390.02101   12 1035 -403.45937 -382.43575  5.21%  1164 7248s
   211    56 -394.50597   13 1026 -403.45937 -382.43575  5.21%  1164 7264s
   212    57 -398.24344   14  949 -403.45937 -382.43575  5.21%  1163 7279s
   213    58 -400.48592   15  939 -403.45937 -382.43575  5.21%  1161 7291s
   214    59 -403.10215   16  920 -403.45937 -382.43575  5.21%  1159 7301s
   217    56     cutoff   16      -403.45937 -382.43575  5.21%  1145 7307s
   218    55     cutoff   15      -403.45937 -382.43575  5.21%  1143 7316s
   219    56 -389.27389   13 1046 -403.45937 -383.37048  4.98%  1152 7347s
   220    57 -393.75885   14 1040 -403.45937 -383.37048  4.98%  1152 7362s
   221    58 -396.74883   15 1047 -403.45937 -383.37048  4.98%  1151 7377s
   222    57     cutoff   15      -403.45937 -383.37048  4.98%  1149 7386s
   223    58 -399.73880   16 1025 -403.45937 -383.37048  4.98%  1147 7396s
   224    57     cutoff   17      -403.45937 -383.37048  4.98%  1145 7406s
   225    56     cutoff   16      -403.45937 -383.37048  4.98%  1142 7412s
   226    55     cutoff   17      -403.45937 -383.37048  4.98%  1138 7415s
   227    56 -399.34815   15  502 -403.45937 -383.57247  4.93%  1142 7443s
   228    57 -399.34815   16  526 -403.45937 -383.57247  4.93%  1138 7447s
   230    59 -399.34815   18  525 -403.45937 -383.57247  4.93%  1128 7450s
   231    60 -400.46939   19  524 -403.45937 -383.57247  4.93%  1125 7456s
   233    62 -401.59063   21  512 -403.45937 -383.57247  4.93%  1116 7461s
   234    63 -402.71188   22  472 -403.45937 -383.57247  4.93%  1112 7465s
   239    60     cutoff   22      -403.45937 -383.57247  4.93%  1091 7470s
   240    61 -390.86955   15 1041 -403.45937 -383.78266  4.88%  1090 7487s
   241    62 -394.60702   16 1034 -403.45937 -383.78266  4.88%  1089 7501s
   242    63 -396.84950   17 1030 -403.45937 -383.78266  4.88%  1087 7510s
   243    62     cutoff   18      -403.45937 -383.78266  4.88%  1090 7529s
   244    61     cutoff   18      -403.45937 -383.78266  4.88%  1089 7536s
   245    60     cutoff   17      -403.45937 -383.78266  4.88%  1087 7544s
   246    59     cutoff   16      -403.45937 -383.78266  4.88%  1085 7555s
   247    60 -385.70832   16 1048 -403.45937 -384.06703  4.81%  1089 7573s
   248    61 -390.56703   17 1042 -403.45937 -384.06703  4.81%  1099 7609s
   249    62 -393.55700   18 1017 -403.45937 -384.06703  4.81%  1099 7630s
   250    63 -396.73385   19 1017 -403.45937 -384.06703  4.81%  1097 7639s
   251    64 -400.09757   20  940 -403.45937 -384.06703  4.81%  1097 7655s
   252    65 -401.77943   21  929 -403.45937 -384.06703  4.81%  1094 7662s
   253    64     cutoff   20      -403.45937 -384.06703  4.81%  1092 7671s
   254    63     cutoff   22      -403.45937 -384.06703  4.81%  1090 7679s
   255    62     cutoff   21      -403.45937 -384.06703  4.81%  1087 7682s
   257    60     cutoff    7      -403.45937 -384.49172  4.70%  1084 7696s
   258    61 -402.72045   16  602 -403.45937 -385.72987  4.39%  1088 7721s
   261    60     cutoff   18      -403.45937 -385.72987  4.39%  1077 7725s
   263    58     cutoff   17      -403.45937 -385.88046  4.36%  1108 7837s
   264    57     cutoff    4      -403.45937 -387.28957  4.01%  1111 7867s
   265    56     cutoff    9      -403.45937 -387.45530  3.97%  1149 7997s
   266    55     cutoff   10      -403.45937 -387.78394  3.89%  1232 8408s
   267    54     cutoff   12      -403.45937 -388.36186  3.74%  1299 8702s
   268    53     cutoff    8      -403.45937 -388.50949  3.71%  1298 8712s
   270    53 -389.25699   22  935 -403.45937 -388.84451  3.62%  1290 8720s
   271    54 -390.00448   23  839 -403.45937 -388.84451  3.62%  1287 8728s
   272    55 -390.37823   24  906 -403.45937 -388.84451  3.62%  1284 8732s
   273    56 -391.49947   25  914 -403.45937 -388.84451  3.62%  1281 8738s
   274    57 -392.54596   26  913 -403.45937 -388.84451  3.62%  1278 8743s
   275    58 -393.29345   27  888 -403.45937 -388.84451  3.62%  1274 8747s
   276    59 -393.74195   28  913 -403.45937 -388.84451  3.62%  1271 8750s
   277    60 -394.59046   29  889 -403.45937 -388.84451  3.62%  1268 8756s
   279    62 -395.66408   31  886 -403.45937 -388.84451  3.62%  1261 8765s
   281    64 -396.67443   33  875 -403.45937 -388.84451  3.62%  1254 8774s
   282    65 -396.91880   34  802 -403.45937 -388.84451  3.62%  1250 8777s
   283    66 -398.04004   35  751 -403.45937 -388.84451  3.62%  1246 8780s
   285    68 -399.34815   37  629 -403.45937 -388.84451  3.62%  1239 8786s
   288    67     cutoff   39      -403.45937 -388.84451  3.62%  1228 8790s
   289    68 -401.36639   38  751 -403.45937 -388.84451  3.62%  1226 8796s
   290    69 -402.71188   39  659 -403.45937 -388.84451  3.62%  1223 8800s
   294    67 -395.54730   17 1011 -403.45937 -389.25699  3.52%  1215 8828s
   295    68 -400.03226   18  998 -403.45937 -389.25699  3.52%  1215 8845s
   296    69 -402.27474   19  983 -403.45937 -389.25699  3.52%  1214 8854s
   297    68     cutoff   20      -403.45937 -389.25699  3.52%  1211 8858s
   298    67     cutoff   20      -403.45937 -389.25699  3.52%  1208 8860s
   299    66     cutoff   19      -403.45937 -389.25699  3.52%  1205 8865s
   300    65     cutoff   18      -403.45937 -389.25699  3.52%  1206 8883s
   301    64     cutoff   23      -403.45937 -389.29369  3.51%  1209 8902s
   302    63     cutoff   14      -403.45937 -389.62655  3.43%  1274 9241s
   303    62     cutoff    5      -403.45937 -389.80581  3.38%  1323 9563s
   304    61     cutoff    6      -403.45937 -390.00448  3.33%  1369 9773s
   305    60     cutoff   24      -403.45937 -390.02592  3.33%  1366 9778s
   306    59     cutoff   13      -403.45937 -390.36617  3.25%  1365 9789s
   307    58     cutoff    5      -403.45937 -390.37823  3.24%  1364 9801s
   308    59 -402.71188   25  239 -403.45937 -390.58816  3.19%  1361 9808s
   310    57     cutoff   26      -403.45937 -390.58816  3.19%  1353 9810s
   311    56     cutoff   18      -403.45937 -390.59618  3.19%  1352 9823s
   312    57 -393.21258   18 1056 -403.45937 -390.59689  3.19%  1356 9842s
   313    58 -397.69755   19 1062 -403.45937 -390.59689  3.19%  1355 9856s
   314    59 -399.94003   20 1056 -403.45937 -390.59689  3.19%  1353 9865s
   315    60 -402.85525   21 1051 -403.45937 -390.59689  3.19%  1351 9879s
   316    59     cutoff   22      -403.45937 -390.59689  3.19%  1347 9880s
   318    57     cutoff   21      -403.45937 -390.59689  3.19%  1341 9888s
   319    56     cutoff   20      -403.45937 -390.59689  3.19%  1338 9895s
   320    57 -393.96070   19 1042 -403.45937 -390.67015  3.17%  1339 9912s
   321    58 -398.44567   20 1036 -403.45937 -390.67015  3.17%  1342 9932s
   322    59 -400.68815   21 1031 -403.45937 -390.67015  3.17%  1341 9943s
   323    58     cutoff   22      -403.45937 -390.67015  3.17%  1339 9951s
   325    56     cutoff   22      -403.45937 -390.67015  3.17%  1332 9957s
   326    55     cutoff   20      -403.45937 -390.67015  3.17%  1330 9968s
   327    56 -392.46459   20 1061 -403.45937 -390.81616  3.13%  1329 9980s
   328    57 -396.94955   21 1041 -403.45937 -390.81616  3.13%  1329 10001s
   329    58 -399.19203   22 1043 -403.45937 -390.81616  3.13%  1326 10009s
   330    59 -401.43452   23 1040 -403.45937 -390.81616  3.13%  1325 10020s
   332    57     cutoff   24      -403.45937 -390.81616  3.13%  1319 10026s
   333    56     cutoff   23      -403.45937 -390.81616  3.13%  1317 10035s
   334    55     cutoff   22      -403.45937 -390.81616  3.13%  1315 10042s
   335    56 -397.97473   21 1126 -403.45937 -391.36141  3.00%  1314 10056s
   336    57 -402.45969   22 1112 -403.45937 -391.36141  3.00%  1313 10068s
   337    56     cutoff   23      -403.45937 -391.36141  3.00%  1310 10070s
   340    53     cutoff    6      -403.45937 -391.38154  2.99%  1305 10099s
   341    52     cutoff   10      -403.45937 -391.49947  2.96%  1302 10102s
   342    51     cutoff   26      -403.45937 -391.52044  2.96%  1302 10112s
   343    50     cutoff   11      -403.45937 -392.29774  2.77%  1376 10560s
   344    49     cutoff    9      -403.45937 -392.53542  2.71%  1374 10566s
   345    48     cutoff   21      -403.45937 -392.54596  2.70%  1371 10573s
   346    47     cutoff   27      -403.45937 -392.60865  2.69%  1370 10580s
   347    46     cutoff    6      -403.45937 -392.80163  2.64%  1368 10589s
   348    45     cutoff    7      -403.45937 -393.03563  2.58%  1366 10599s
   349    46 -395.55637   22 1052 -403.45937 -393.23321  2.53%  1366 10615s
   350    47 -400.04133   23 1037 -403.45937 -393.23321  2.53%  1364 10626s
   351    46     cutoff   24      -403.45937 -393.23321  2.53%  1369 10649s
   352    45     cutoff   24      -403.45937 -393.23321  2.53%  1366 10653s
   353    44     cutoff   23      -403.45937 -393.23321  2.53%  1365 10668s
   354    43     cutoff   19      -403.45937 -393.29345  2.52%  1365 10684s
   355    42     cutoff   28      -403.45937 -393.60554  2.44%  1363 10689s
   356    41     cutoff   19      -403.45937 -393.74195  2.41%  1424 11111s
   357    40     cutoff   29      -403.45937 -393.75982  2.40%  1422 11118s
   358    39     cutoff   12      -403.45937 -393.79757  2.39%  1423 11138s
   359    38     cutoff   10      -403.45937 -393.83218  2.39%  1420 11140s
   360    39 -394.71169   23 1178 -403.45937 -394.50130  2.22%  1417 11145s
   361    40 -399.19665   24 1167 -403.45937 -394.50130  2.22%  1416 11156s
   362    41 -401.43913   25 1161 -403.45937 -394.50130  2.22%  1414 11163s
   363    40     cutoff   26      -403.45937 -394.50130  2.22%  1411 11167s
   365    38     cutoff   25      -403.45937 -394.50130  2.22%  1404 11170s
   366    37     cutoff   24      -403.45937 -394.50130  2.22%  1404 11182s
   367    38 -395.02552   24 1126 -403.45937 -394.51017  2.22%  1401 11188s
   368    39 -399.51048   25 1123 -403.45937 -394.51017  2.22%  1400 11200s
   369    40 -401.75296   26 1115 -403.45937 -394.51017  2.22%  1398 11207s
   370    39     cutoff   27      -403.45937 -394.51017  2.22%  1395 11211s
   372    37     cutoff   26      -403.45937 -394.51017  2.22%  1389 11215s
   373    36     cutoff   25      -403.45937 -394.51017  2.22%  1387 11221s
   374    37 -395.54730   25 1097 -403.45937 -394.52110  2.22%  1385 11229s
   375    38 -400.03226   26 1081 -403.45937 -394.52110  2.22%  1384 11241s
   377    36     cutoff   26      -403.45937 -394.52110  2.22%  1379 11251s
   378    37 -402.27474   27 1072 -403.45937 -394.52110  2.22%  1376 11264s
   379    36     cutoff   28      -403.45937 -394.52110  2.22%  1373 11266s
   381    34     cutoff   14      -403.45937 -394.59046  2.20%  1368 11279s
   382    33     cutoff   30      -403.45937 -394.73167  2.16%  1366 11285s
   384    31     cutoff    7      -403.45937 -395.53370  1.96%  1362 11296s
   385    30     cutoff   11      -403.45937 -395.66408  1.93%  1359 11300s
   387    30 -396.74336    7  649 -403.45937 -395.98443  1.85%  1354 11311s
   388    31 -397.10567    8  465 -403.45937 -395.98443  1.85%  1352 11319s
   389    32 -398.22691    9  454 -403.45937 -395.98443  1.85%  1349 11325s
   391    34 -398.60352   11  522 -403.45937 -395.98443  1.85%  1342 11330s
   394    37 -401.21689   14  244 -403.45937 -395.98443  1.85%  1333 11336s
   396    37     cutoff   16      -403.45937 -395.98443  1.85%  1327 11340s
   400    37 -402.33813   15   43 -403.45937 -395.98443  1.85%  1315 11348s
   402    35     cutoff   16      -403.45937 -395.98443  1.85%  1309 11351s
   404    33     cutoff   33      -403.45937 -396.29985  1.77%  1304 11358s
   405    32     cutoff    8      -403.45937 -396.67443  1.68%  1302 11363s
   406    31     cutoff   34      -403.45937 -396.80952  1.65%  1300 11367s
   407    30     cutoff   11      -403.45937 -396.87583  1.63%  1298 11371s
   409    28     cutoff    9      -403.45937 -397.10567  1.57%  1293 11376s
   410    27     cutoff   35      -403.45937 -398.04004  1.34%  1291 11380s
   412    25     cutoff   10      -403.45937 -398.22691  1.30%  1286 11385s
   416    21     cutoff    9      -403.45937 -398.93266  1.12%  1275 11392s
   417    20     cutoff   12      -403.45937 -399.15466  1.07%  1273 11398s
   418    21 -400.46939   13  494 -403.45937 -399.28466  1.03%  1271 11405s
   423    22 -401.97010   16  482 -403.45937 -399.28466  1.03%  1257 11411s
   427    22 -402.71188   18  243 -403.45937 -399.28466  1.03%  1246 11415s
   432    17     cutoff   19      -403.45937 -399.34815  1.02%  1233 11421s
   433    16     cutoff   18      -403.45937 -399.34815  1.02%  1231 11426s
   434    15     cutoff   16      -403.45937 -399.34815  1.02%  1229 11433s
   435    14     cutoff   17      -403.45937 -399.53720  0.97%  1238 11470s
   438    11     cutoff   20      -403.45937 -400.46939  0.74%  1230 11476s
   440    11 -402.43585   10  706 -403.45937 -400.50727  0.73%  1227 11487s
   442    11     cutoff   12      -403.45937 -400.50727  0.73%  1221 11490s
   447     6     cutoff   24      -403.45937 -401.21689  0.56%  1208 11495s
   451     2     cutoff    8      -403.45937 -402.71622  0.18%  1198 11500s

Cutting planes:
  Gomory: 2
  Zero half: 709

Explored 454 nodes (695206 simplex iterations) in 11502.69 seconds
Thread count was 1 (of 80 available processors)

Solution count 2: -403.459 -17219.2 

Optimal solution found (tolerance 1.00e-04)
Best objective -4.034593690604e+02, best bound -4.034593690604e+02, gap 0.0000%
